15
1 0 2
2 0 1
2 1 2
3 0 1
3 1 1
3 2 2
4 0 1
4 1 2
4 2 2
4 3 1
5 0 1
5 1 1
5 2 1
5 3 3
5 4 1
6 0 1
6 1 3
6 2 2
6 3 3
6 4 2
6 5 3
7 0 2
7 1 3
7 2 2
7 3 1
7 4 3
7 5 3
7 6 2
8 0 2
8 1 1
8 2 1
8 3 3
8 4 1
8 5 3
8 6 1
8 7 1
9 0 3
9 1 2
9 2 1
9 3 1
9 4 3
9 5 2
9 6 1
9 7 2
9 8 3
10 0 2
10 1 3
10 2 3
10 3 2
10 4 1
10 5 3
10 6 2
10 7 3
10 8 2
10 9 1
11 0 2
11 1 1
11 2 1
11 3 1
11 4 3
11 5 2
11 6 1
11 7 2
11 8 3
11 9 1
11 10 2
12 0 3
12 1 3
12 2 2
12 3 2
12 4 1
12 5 3
12 6 2
12 7 1
12 8 3
12 9 2
12 10 2
12 11 2
13 0 3
13 1 3
13 2 1
13 3 1
13 4 1
13 5 3
13 6 1
13 7 2
13 8 1
13 9 2
13 10 2
13 11 2
13 12 2
14 0 2
14 1 3
14 2 1
14 3 1
14 4 2
14 5 3
14 6 2
14 7 3
14 8 2
14 9 1
14 10 1
14 11 3
14 12 2
14 13 3
